
<<< setup


<<< generate

Version identifier: 12.10.0.0 | 2019-11-26 | 843d4de2ae
CPXPARAM_TimeLimit                               1200
Tried aggregator 2 times.
MIP Presolve eliminated 5173481 rows and 2940303 columns.
MIP Presolve modified 411900 coefficients.
Aggregator did 1355 substitutions.
Reduced MIP has 75814 rows, 77392 columns, and 475863 nonzeros.
Reduced MIP has 77342 binaries, 0 generals, 0 SOSs, and 0 indicators.
Presolve time = 6.64 sec. (3789.28 ticks)
Found incumbent of value 0.000000 after 9.94 sec. (4874.37 ticks)
Probing time = 0.30 sec. (31.87 ticks)
Tried aggregator 1 time.
Detecting symmetries...
Reduced MIP has 75814 rows, 77392 columns, and 475863 nonzeros.
Reduced MIP has 77342 binaries, 0 generals, 0 SOSs, and 0 indicators.
Presolve time = 0.78 sec. (374.99 ticks)
Probing time = 0.20 sec. (27.38 ticks)
Clique table members: 263868.
MIP emphasis: balance optimality and feasibility.
MIP search method: dynamic search.
Parallel mode: deterministic, using up to 4 threads.
Root relaxation solution time = 24.44 sec. (14893.26 ticks)

        Nodes                                         Cuts/
   Node  Left     Objective  IInf  Best Integer    Best Bound    ItCnt     Gap

*     0+    0                            0.0000   142261.0000              --- 
      0     0   142261.0000  1594        0.0000   142261.0000       22     --- 
      0     0   142261.0000  1594        0.0000       Cuts: 9      557     --- 
      0     0   142261.0000  1594        0.0000    Cuts: 9573    18523     --- 
      0     0   142261.0000  1594        0.0000     Cuts: 574    44951     --- 
Heuristic still looking.
Heuristic still looking.
      0     2   142261.0000   560        0.0000   142261.0000    44951     --- 
Elapsed time = 813.89 sec. (504908.41 ticks, tree = 0.02 MB, solutions = 1)
      1     3   142261.0000   737        0.0000   142261.0000    69766     --- 
      2     4   142261.0000   920        0.0000   142261.0000    82934     --- 
      3     4   142261.0000   869        0.0000   142261.0000    83517     --- 
      4     5   142261.0000   907        0.0000   142261.0000    97257     --- 
      5     7   142261.0000  1192        0.0000   142261.0000   120020     --- 
      6     8   142261.0000  1118        0.0000   142261.0000   124205     --- 
      7     9   142261.0000  1134        0.0000   142261.0000   126003     --- 
      8    10   142261.0000  1120        0.0000   142261.0000   126091     --- 
      9     5   142261.0000   928        0.0000   142261.0000    99889     --- 
     10     9   142261.0000  1468        0.0000   142261.0000   155368     --- 
Elapsed time = 1021.80 sec. (605737.41 ticks, tree = 0.09 MB, solutions = 1)
     12    12   142261.0000  1086        0.0000   142261.0000   134708     --- 
     14    14   142261.0000  1151        0.0000   142261.0000   136545     --- 
     17     6   142261.0000   883        0.0000   142261.0000   114833     --- 
     19    11   142261.0000   993        0.0000   142261.0000   160814     --- 
     21    18   142261.0000  1142        0.0000   142261.0000   142735     --- 
     23    20   142261.0000  1155        0.0000   142261.0000   146355     --- 
     27    24   142261.0000  1134        0.0000   142261.0000   183503     --- 
     29    10   142261.0000  1602        0.0000   142261.0000   174600     --- 
     32    28   142261.0000  1180        0.0000   142261.0000   192435     --- 
     34    11   142261.0000  1051        0.0000   142261.0000   176012     --- 
Elapsed time = 1066.83 sec. (623559.89 ticks, tree = 0.16 MB, solutions = 1)
     35    12   142261.0000   971        0.0000   142261.0000   161843     --- 
     40    27   142261.0000   974        0.0000   142261.0000   207187     --- 
     43    35   142261.0000  1139        0.0000   142261.0000   201215     --- 
     44    36   142261.0000  1177        0.0000   142261.0000   205927     --- 
     48    38   142261.0000  1169        0.0000   142261.0000   208191     --- 
     53    32   142261.0000   974        0.0000   142261.0000   210373     --- 
     54    33   142261.0000   932        0.0000   142261.0000   211075     --- 
     56    42   142261.0000  1131        0.0000   142261.0000   217865     --- 
     57    34   142261.0000   883        0.0000   142261.0000   213005     --- 
     63    46   142261.0000  1119        0.0000   142261.0000   224041     --- 
Elapsed time = 1094.31 sec. (635405.46 ticks, tree = 1.46 MB, solutions = 1)
     66    47   142261.0000  1166        0.0000   142261.0000   230730     --- 
     70    59   142261.0000   997        0.0000   142261.0000   284758     --- 
     74    60   142261.0000   994        0.0000   142261.0000   285781     --- 
     76    71   142261.0000   906        0.0000   142261.0000   304744     --- 
     80    62   142261.0000   972        0.0000   142261.0000   287637     --- 
     84    63   142261.0000   964        0.0000   142261.0000   288419     --- 
     86    64   142261.0000   853        0.0000   142261.0000   290601     --- 
     89    73   142261.0000   852        0.0000   142261.0000   311306     --- 
Starting limited solution polishing.
     92    76   142261.0000   915        0.0000   142261.0000   315795     --- 
     96    79   142261.0000   856        0.0000   142261.0000   320187     --- 
Elapsed time = 1133.53 sec. (650730.85 ticks, tree = 1.91 MB, solutions = 1)
     97    80   142261.0000   858        0.0000   142261.0000   328735     --- 
    101    84   142261.0000   886        0.0000   142261.0000   333485     --- 
    105    88   142261.0000   931        0.0000   142261.0000   338503     --- 
    110   102   142261.0000   880        0.0000   142261.0000   356616     --- 
    115   104   142261.0000   931        0.0000   142261.0000   362155     --- 
    121    90   142261.0000  1028        0.0000   142261.0000   336591     --- 
    124    92   142261.0000  1005        0.0000   142261.0000   338870     --- 
    129   112   142261.0000   997        0.0000   142261.0000   372661     --- 
    132   114   142261.0000  1040        0.0000   142261.0000   376211     --- 
    135   116   142261.0000  1025        0.0000   142261.0000   379456     --- 
Elapsed time = 1167.83 sec. (666094.68 ticks, tree = 3.10 MB, solutions = 1)
    138   120   142261.0000  1062        0.0000   142261.0000   392089     --- 
    139   118   142261.0000   981        0.0000   142261.0000   388797     --- 
    141   119   142261.0000   968        0.0000   142261.0000   392339     --- 
    143   120   142261.0000   948        0.0000   142261.0000   394974     --- 
    146   125   142261.0000  1000        0.0000   142261.0000   408256     --- 
    147   126   142261.0000  1046        0.0000   142261.0000   412500     --- 
    150   138   142261.0000  1031        0.0000   142261.0000   441252     --- 
    154   140   142261.0000   968        0.0000   142261.0000   446337     --- 
    158   142   142261.0000  1053        0.0000   142261.0000   450925     --- 
    160   144   142261.0000  1064        0.0000   142261.0000   453842     --- 
Elapsed time = 1199.08 sec. (680010.89 ticks, tree = 4.00 MB, solutions = 1)

Implied bound cuts applied:  245
Flow cuts applied:  484
Mixed integer rounding cuts applied:  81

Root node processing (before b&c):
  Real time             =  799.03 sec. (498882.44 ticks)
Parallel b&c, 4 threads:
  Real time             =  401.48 sec. (212869.21 ticks)
  Sync time (average)   =   58.09 sec.
  Wait time (average)   =    0.00 sec.
                          ------------
Total (root+branch&cut) = 1200.52 sec. (711751.65 ticks)

<<< solve


OBJECTIVE: 0

<<< post process


<<< done

